
<<< setup

Version identifier: 22.1.1.0 | 2022-11-27 | 9160aff4d
Tried aggregator 1 time.
LP Presolve eliminated 117 rows and 74 columns.
Reduced LP has 4 rows, 31 columns, and 31 nonzeros.
Presolve time = 0.00 sec. (0.05 ticks)

Iteration log . . .
Iteration:     1   Dual objective     =          1537.470752
main returns 0

<<< main


<<< done

